nNurses = 82;
nHours = 29;
minHours = 4;
maxHours = 8;
maxConsec = 8;
maxPresence = 7;
demand = [5, 7, 5, 9, 11, 7, 11, 16, 19, 21, 17, 15, 19, 21, 21, 23, 20, 15, 14, 11, 8, 9, 9, 13, 15, 12, 10, 7, 6];
